\* Problem: steiner *\

Minimize
 obj: + 0.310697942972183 x1i19 + 3 x1i20 + 2.82842707633972 x1i21
 + 5.65685415267944 x1i22 + 2.06759119033813 x1i23
 + 5.0990195274353 x1i24 + 6.61434555053711 x1i25
 + 2.82842707633972 x1i26 + 5.39733457565308 x1i27
 + 8.5440034866333 x1i28 + 6.08276271820068 x1i29
 + 6.7081995010376 x1i30 + 12.7504320144653 x1i31
 + 13.6014709472656 x1i32 + 8.9442720413208 x1i33
 + 14.2126703262329 x1i34 + 2.96437740325928 x2i19 + 0 x2i20
 + 5.38516473770142 x2i21 + 8.06225776672363 x2i22
 + 1.52152323722839 x2i23 + 8.06225776672363 x2i24
 + 9.46983432769775 x2i25 + 5.38516473770142 x2i26
 + 6.54169368743896 x2i27 + 10 x2i28 + 9.05538558959961 x2i29 + 6 x2i30
 + 15.5628757476807 x2i31 + 16.4924221038818 x2i32
 + 8.06225776672363 x2i33 + 16.2788200378418 x2i34
 + 5.91267538070679 x3i19 + 8.06225776672363 x3i20
 + 6.32455539703369 x3i21 + 0 x3i22 + 7.65750169754028 x3i23
 + 5.0990195274353 x3i24 + 2.67034912109375 x3i25
 + 6.32455539703369 x3i26 + 9.88146209716797 x3i27
 + 12.0415945053101 x3i28 + 3.60555124282837 x3i29
 + 12.2065496444702 x3i30 + 7.82345628738403 x3i31 + 9 x3i32
 + 14.4222049713135 x3i33 + 15.8113880157471 x3i34
 + 5.95146465301514 x4i19 + 3.60555124282837 x4i20
 + 8.60232543945312 x4i21 + 9.05538558959961 x4i22
 + 5.08137130737305 x4i23 + 10.7703294754028 x4i24
 + 11.1696310043335 x4i25 + 8.60232543945312 x4i26
 + 10.1463642120361 x4i27 + 13.6014709472656 x4i28
 + 11.1803398132324 x4i29 + 9.2195463180542 x4i30
 + 16.8787975311279 x4i31 + 18.0277557373047 x4i32
 + 11.0453605651855 x4i33 + 99999 x4i34 + 2.66025042533875 x5i19
 + 5.38516473770142 x5i20 + 0 x5i21 + 6.32455539703369 x5i22
 + 3.96319723129272 x5i23 + 3.16227769851685 x5i24
 + 6.06806087493896 x5i25 + 0 x5i26 + 3.55787253379822 x5i27
 + 6.08276271820068 x5i28 + 5 x5i29 + 6.40311670303345 x5i30
 + 11.9617824554443 x5i31 + 12.5299644470215 x5i32
 + 8.48528099060059 x5i33 + 11.4017543792725 x5i34
 + 7.38167524337769 x6i19 + 8.06225776672363 x6i20
 + 9.05538558959961 x6i21 + 4.24264049530029 x6i22
 + 8.4551362991333 x6i23 + 8.9442720413208 x6i24 + 6.8936972618103 x6i25
 + 9.05538558959961 x6i26 + 12.3431129455566 x6i27
 + 15.1327457427979 x6i28 + 7.81024980545044 x6i29
 + 13.6014680862427 x6i30 + 10.974534034729 x6i31
 + 12.3693170547485 x6i32 + 15.8113880157471 x6i33 + 99999 x6i34
 + 2.58165311813354 x7i19 + 2.2360680103302 x7i20 + 4 x7i21
 + 8.48528099060059 x7i22 + 1.04581689834595 x7i23
 + 7.07106781005859 x7i24 + 9.2767972946167 x7i25 + 4 x7i26
 + 4.34455728530884 x7i27 + 7.81024980545044 x7i28
 + 8.5440034866333 x7i29 + 4.12310314178467 x7i30
 + 15.4031505584717 x7i31 + 16.1554946899414 x7i32
 + 6.32455539703369 x7i33 + 14.2126703262329 x7i34
 + 5.09889554977417 x8i19 + 8.06225776672363 x8i20
 + 3.16227769851685 x8i21 + 5.0990195274353 x8i22
 + 6.82672214508057 x8i23 + 0 x8i24 + 3.61218285560608 x8i25
 + 3.16227769851685 x8i26 + 6.05624628067017 x8i27
 + 7.28010988235474 x8i28 + 2.2360680103302 x8i29
 + 9.43397235870361 x8i30 + 8.98087215423584 x8i31
 + 9.43398094177246 x8i32 + 11.4017543792725 x8i33
 + 10.7703294754028 x8i34 + 14.6965894699097 x9i19
 + 17.4642486572266 x9i20 + 13.416407585144 x9i21 + 10 x9i22
 + 16.5882587432861 x9i23 + 10.2956304550171 x9i24
 + 8.00229740142822 x9i25 + 13.416407585144 x9i26
 + 16.1895484924316 x9i27 + 16.2788200378418 x9i28
 + 8.5440034866333 x9i29 + 99999 x9i30 + 2.40301275253296 x9i31 + x9i32
 + 99999 x9i33 + 15.8113880157471 x9i34 + 8.27666187286377 x10i19
 + 10 x10i20 + 6.08276271820068 x10i21 + 12.0415945053101 x10i22
 + 8.52856540679932 x10i23 + 7.28010988235474 x10i24
 + 10.8896169662476 x10i25 + 6.08276271820068 x10i26
 + 3.46570014953613 x10i27 + 0 x10i28 + 9.48683261871338 x10i29
 + 6.32454586029053 x10i30 + 15.5991144180298 x10i31
 + 15.6204996109009 x10i32 + 7 x10i33 + 6.70820379257202 x10i34
 + 11.0926427841187 x11i19 + 11 x11i20 + 10.2956304550171 x11i21
 + 16.5529460906982 x11i22 + 10.099739074707 x11i23
 + 12.806248664856 x11i24 + 16.2473411560059 x11i25
 + 10.2956304550171 x11i26 + 6.80364322662354 x11i27
 + 6.70820379257202 x11i28 + 15 x11i29 + 5 x11i30 + 99999 x11i31
 + 99999 x11i32 + 3.16227769851685 x11i33 + 12 x11i34
 + 14.0100936889648 x12i19 + 16.2788200378418 x12i20
 + 11.4017543792725 x12i21 + 15.8113880157471 x12i22
 + 14.7595500946045 x12i23 + 10.7703294754028 x12i24
 + 13.7209062576294 x12i25 + 11.4017543792725 x12i26
 + 9.98195362091064 x12i27 + 6.70820379257202 x12i28
 + 12.3693170547485 x12i29 + 12.9999904632568 x12i30
 + 16.1390476226807 x12i31 + 15.5241746902466 x12i32
 + 13.34166431427 x12i33 + 0 x12i34 + 6.19090700149536 x13i19
 + 9.05538558959961 x13i20 + 5 x13i21 + 3.60555124282837 x13i22
 + 8.07044219970703 x13i23 + 2.2360680103302 x13i24
 + 1.43103635311127 x13i25 + 5 x13i26 + 8.21512889862061 x13i27
 + 9.48683261871338 x13i28 + 0 x13i29 + 11.4017457962036 x13i30
 + 6.96532487869263 x13i31 + 7.61577320098877 x13i32
 + 13.4536237716675 x13i33 + 12.3693170547485 x13i34
 + 6.41176509857178 x14i19 + 6 x14i20 + 6.40312433242798 x14i21
 + 12.2065553665161 x14i22 + 5.1663556098938 x14i23
 + 9.43398094177246 x14i24 + 12.4398384094238 x14i25
 + 6.40312433242798 x14i26 + 3.83413052558899 x14i27
 + 6.32455539703369 x14i28 + 11.4017543792725 x14i29
 + 9.99999974737875e-06 x14i30 + 18.3574085235596 x14i31
 + 18.8679618835449 x14i32 + 2.2360680103302 x14i33 + 13 x14i34
 + 14.0933361053467 x15i19 + 16.5529460906982 x15i20
 + 13.4536237716675 x15i21 + 8.5440034866333 x15i22
 + 15.9585599899292 x15i23 + 10.6301460266113 x15i24
 + 7.42426204681396 x15i25 + 13.4536237716675 x15i26
 + 16.6810207366943 x15i27 + 17.4928550720215 x15i28
 + 8.48528099060059 x15i29 + 99999 x15i30 + 2.1130998134613 x15i31
 + 3.16227769851685 x15i32 + 99999 x15i33 + 18.2482872009277 x15i34
 + 13.7436065673828 x16i19 + 16.4924221038818 x16i20
 + 12.5299644470215 x16i21 + 9 x16i22 + 15.6370401382446 x16i23
 + 9.43398094177246 x16i24 + 7.02468252182007 x16i25
 + 12.5299644470215 x16i26 + 15.383617401123 x16i27
 + 15.6204996109009 x16i28 + 7.61577320098877 x16i29
 + 18.8679542541504 x16i30 + 1.52238988876343 x16i31 + 0 x16i32
 + 99999 x16i33 + 15.5241746902466 x16i34 + 8.64766597747803 x17i19
 + 8.06225776672363 x17i20 + 8.48528099060059 x17i21
 + 14.4222049713135 x17i22 + 7.35957431793213 x17i23
 + 11.4017543792725 x17i24 + 14.5516176223755 x17i25
 + 8.48528099060059 x17i26 + 5.46720600128174 x17i27 + 7 x17i28
 + 13.4536237716675 x17i29 + 2.2360725402832 x17i30 + 99999 x17i31
 + 99999 x17i32 + 0 x17i33 + 13.34166431427 x17i34
 + 15.4198875427246 x18i19 + 17.6918067932129 x18i20
 + 12.806248664856 x18i21 + 17.0880069732666 x18i22
 + 16.1728267669678 x18i23 + 12.0830459594727 x18i24
 + 14.9264583587646 x18i25 + 12.806248664856 x18i26
 + 11.3755445480347 x18i27 + 8.06225776672363 x18i28
 + 13.6014709472656 x18i29 + 14.3178119659424 x18i30
 + 16.9918880462646 x18i31 + 16.2788200378418 x18i32
 + 14.5602197647095 x18i33 + 1.41421353816986 x18i34
 + 2.96437740325928 x19i20 + 2.66025042533875 x19i21
 + 5.91267538070679 x19i22 + 1.89465892314911 x19i23
 + 5.09889554977417 x19i24 + 6.77972221374512 x19i25
 + 2.66025042533875 x19i26 + 5.10242748260498 x19i27
 + 8.27666187286377 x19i28 + 6.19090700149536 x19i29
 + 6.41176080703735 x19i30 + 12.9183902740479 x19i31
 + 13.7436065673828 x19i32 + 8.64766597747803 x19i33
 + 14.0100936889648 x19i34 + 5.38516473770142 x20i21
 + 8.06225776672363 x20i22 + 1.52152323722839 x20i23
 + 8.06225776672363 x20i24 + 9.46983432769775 x20i25
 + 5.38516473770142 x20i26 + 6.54169368743896 x20i27 + 10 x20i28
 + 9.05538558959961 x20i29 + 6 x20i30 + 15.5628757476807 x20i31
 + 16.4924221038818 x20i32 + 8.06225776672363 x20i33
 + 16.2788200378418 x20i34 + 6.32455539703369 x21i22
 + 3.96319723129272 x21i23 + 3.16227769851685 x21i24
 + 6.06806087493896 x21i25 + 0 x21i26 + 3.55787253379822 x21i27
 + 6.08276271820068 x21i28 + 5 x21i29 + 6.40311670303345 x21i30
 + 11.9617824554443 x21i31 + 12.5299644470215 x21i32
 + 8.48528099060059 x21i33 + 11.4017543792725 x21i34
 + 7.65750169754028 x22i23 + 5.0990195274353 x22i24
 + 2.67034912109375 x22i25 + 6.32455539703369 x22i26
 + 9.88146209716797 x22i27 + 12.0415945053101 x22i28
 + 3.60555124282837 x22i29 + 12.2065496444702 x22i30
 + 7.82345628738403 x22i31 + 9 x22i32 + 14.4222049713135 x22i33
 + 15.8113880157471 x22i34 + 6.82672214508057 x23i24
 + 8.67195892333984 x23i25 + 3.96319723129272 x23i26
 + 5.08898639678955 x23i27 + 8.52856540679932 x23i28
 + 8.07044219970703 x23i29 + 5.16635370254517 x23i30
 + 14.8103008270264 x23i31 + 15.6370401382446 x23i32
 + 7.35957431793213 x23i33 + 14.7595500946045 x23i34
 + 3.61218285560608 x24i25 + 3.16227769851685 x24i26
 + 6.05624628067017 x24i27 + 7.28010988235474 x24i28
 + 2.2360680103302 x24i29 + 9.43397235870361 x24i30
 + 8.98087215423584 x24i31 + 9.43398094177246 x24i32
 + 11.4017543792725 x24i33 + 10.7703294754028 x24i34
 + 6.06806087493896 x25i26 + 9.44428443908691 x25i27
 + 10.8896169662476 x25i28 + 1.43103635311127 x25i29
 + 12.4398307800293 x25i30 + 6.13866949081421 x25i31
 + 7.02468252182007 x25i32 + 14.5516176223755 x25i33
 + 13.7209062576294 x25i34 + 3.55787253379822 x26i27
 + 6.08276271820068 x26i28 + 5 x26i29 + 6.40311670303345 x26i30
 + 11.9617824554443 x26i31 + 12.5299644470215 x26i32
 + 8.48528099060059 x26i33 + 11.4017543792725 x26i34
 + 3.46570014953613 x27i28 + 8.21512889862061 x27i29
 + 3.83412075042725 x27i30 + 15.0248003005981 x27i31
 + 15.383617401123 x27i32 + 5.46720600128174 x27i33
 + 9.98195362091064 x27i34 + 9.48683261871338 x28i29
 + 6.32454586029053 x28i30 + 15.5991144180298 x28i31
 + 15.6204996109009 x28i32 + 7 x28i33 + 6.70820379257202 x28i34
 + 11.4017457962036 x29i30 + 6.96532487869263 x29i31
 + 7.61577320098877 x29i32 + 13.4536237716675 x29i33
 + 12.3693170547485 x29i34 + 99999 x30i31 + 99999 x30i32
 + 2.2360725402832 x30i33 + 12.9999904632568 x30i34
 + 1.52238988876343 x31i32 + 99999 x31i33 + 16.1390476226807 x31i34
 + 99999 x32i33 + 15.5241746902466 x32i34 + 13.34166431427 x33i34

Subject To
 p1: 0 x1i19 = 1
 p2: 0 x1i19 = 1
 p3: 0 x1i19 = 1
 p4: 0 x1i19 = 1
 p5: 0 x1i19 = 1
 p6: 0 x1i19 = 1
 p7: 0 x1i19 = 1
 p8: 0 x1i19 = 1
 p9: 0 x1i19 = 1
 p10: 0 x1i19 = 1
 p11: 0 x1i19 = 1
 p12: 0 x1i19 = 1
 p13: 0 x1i19 = 1
 p14: 0 x1i19 = 1
 p15: 0 x1i19 = 1
 p16: 0 x1i19 = 1
 p17: 0 x1i19 = 1
 p18: 0 x1i19 = 1
 q19: 0 x1i19 = 3
 q20: 0 x1i19 = 3
 q21: 0 x1i19 = 3
 q22: 0 x1i19 = 3
 q23: 0 x1i19 = 3
 q24: 0 x1i19 = 3
 q25: 0 x1i19 = 3
 q26: 0 x1i19 = 3
 q27: 0 x1i19 = 3
 q28: 0 x1i19 = 3
 q29: 0 x1i19 = 3
 q30: 0 x1i19 = 3
 q31: 0 x1i19 = 3
 q32: 0 x1i19 = 3
 q33: 0 x1i19 = 3
 q34: 0 x1i19 = 3

Bounds
 0 <= x1i19 <= 1
 0 <= x1i20 <= 1
 0 <= x1i21 <= 1
 0 <= x1i22 <= 1
 0 <= x1i23 <= 1
 0 <= x1i24 <= 1
 0 <= x1i25 <= 1
 0 <= x1i26 <= 1
 0 <= x1i27 <= 1
 0 <= x1i28 <= 1
 0 <= x1i29 <= 1
 0 <= x1i30 <= 1
 0 <= x1i31 <= 1
 0 <= x1i32 <= 1
 0 <= x1i33 <= 1
 0 <= x1i34 <= 1
 0 <= x2i19 <= 1
 0 <= x2i20 <= 1
 0 <= x2i21 <= 1
 0 <= x2i22 <= 1
 0 <= x2i23 <= 1
 0 <= x2i24 <= 1
 0 <= x2i25 <= 1
 0 <= x2i26 <= 1
 0 <= x2i27 <= 1
 0 <= x2i28 <= 1
 0 <= x2i29 <= 1
 0 <= x2i30 <= 1
 0 <= x2i31 <= 1
 0 <= x2i32 <= 1
 0 <= x2i33 <= 1
 0 <= x2i34 <= 1
 0 <= x3i19 <= 1
 0 <= x3i20 <= 1
 0 <= x3i21 <= 1
 0 <= x3i22 <= 1
 0 <= x3i23 <= 1
 0 <= x3i24 <= 1
 0 <= x3i25 <= 1
 0 <= x3i26 <= 1
 0 <= x3i27 <= 1
 0 <= x3i28 <= 1
 0 <= x3i29 <= 1
 0 <= x3i30 <= 1
 0 <= x3i31 <= 1
 0 <= x3i32 <= 1
 0 <= x3i33 <= 1
 0 <= x3i34 <= 1
 0 <= x4i19 <= 1
 0 <= x4i20 <= 1
 0 <= x4i21 <= 1
 0 <= x4i22 <= 1
 0 <= x4i23 <= 1
 0 <= x4i24 <= 1
 0 <= x4i25 <= 1
 0 <= x4i26 <= 1
 0 <= x4i27 <= 1
 0 <= x4i28 <= 1
 0 <= x4i29 <= 1
 0 <= x4i30 <= 1
 0 <= x4i31 <= 1
 0 <= x4i32 <= 1
 0 <= x4i33 <= 1
 x4i34 = 0
 0 <= x5i19 <= 1
 0 <= x5i20 <= 1
 0 <= x5i21 <= 1
 0 <= x5i22 <= 1
 0 <= x5i23 <= 1
 0 <= x5i24 <= 1
 0 <= x5i25 <= 1
 0 <= x5i26 <= 1
 0 <= x5i27 <= 1
 0 <= x5i28 <= 1
 0 <= x5i29 <= 1
 0 <= x5i30 <= 1
 0 <= x5i31 <= 1
 0 <= x5i32 <= 1
 0 <= x5i33 <= 1
 0 <= x5i34 <= 1
 0 <= x6i19 <= 1
 0 <= x6i20 <= 1
 0 <= x6i21 <= 1
 0 <= x6i22 <= 1
 0 <= x6i23 <= 1
 0 <= x6i24 <= 1
 0 <= x6i25 <= 1
 0 <= x6i26 <= 1
 0 <= x6i27 <= 1
 0 <= x6i28 <= 1
 0 <= x6i29 <= 1
 0 <= x6i30 <= 1
 0 <= x6i31 <= 1
 0 <= x6i32 <= 1
 0 <= x6i33 <= 1
 x6i34 = 0
 0 <= x7i19 <= 1
 0 <= x7i20 <= 1
 0 <= x7i21 <= 1
 0 <= x7i22 <= 1
 0 <= x7i23 <= 1
 0 <= x7i24 <= 1
 0 <= x7i25 <= 1
 0 <= x7i26 <= 1
 0 <= x7i27 <= 1
 0 <= x7i28 <= 1
 0 <= x7i29 <= 1
 0 <= x7i30 <= 1
 0 <= x7i31 <= 1
 0 <= x7i32 <= 1
 0 <= x7i33 <= 1
 0 <= x7i34 <= 1
 0 <= x8i19 <= 1
 0 <= x8i20 <= 1
 0 <= x8i21 <= 1
 0 <= x8i22 <= 1
 0 <= x8i23 <= 1
 0 <= x8i24 <= 1
 0 <= x8i25 <= 1
 0 <= x8i26 <= 1
 0 <= x8i27 <= 1
 0 <= x8i28 <= 1
 0 <= x8i29 <= 1
 0 <= x8i30 <= 1
 0 <= x8i31 <= 1
 0 <= x8i32 <= 1
 0 <= x8i33 <= 1
 0 <= x8i34 <= 1
 0 <= x9i19 <= 1
 0 <= x9i20 <= 1
 0 <= x9i21 <= 1
 0 <= x9i22 <= 1
 0 <= x9i23 <= 1
 0 <= x9i24 <= 1
 0 <= x9i25 <= 1
 0 <= x9i26 <= 1
 0 <= x9i27 <= 1
 0 <= x9i28 <= 1
 0 <= x9i29 <= 1
 x9i30 = 0
 0 <= x9i31 <= 1
 0 <= x9i32 <= 1
 x9i33 = 0
 0 <= x9i34 <= 1
 0 <= x10i19 <= 1
 0 <= x10i20 <= 1
 0 <= x10i21 <= 1
 0 <= x10i22 <= 1
 0 <= x10i23 <= 1
 0 <= x10i24 <= 1
 0 <= x10i25 <= 1
 0 <= x10i26 <= 1
 0 <= x10i27 <= 1
 0 <= x10i28 <= 1
 0 <= x10i29 <= 1
 0 <= x10i30 <= 1
 0 <= x10i31 <= 1
 0 <= x10i32 <= 1
 0 <= x10i33 <= 1
 0 <= x10i34 <= 1
 0 <= x11i19 <= 1
 0 <= x11i20 <= 1
 0 <= x11i21 <= 1
 0 <= x11i22 <= 1
 0 <= x11i23 <= 1
 0 <= x11i24 <= 1
 0 <= x11i25 <= 1
 0 <= x11i26 <= 1
 0 <= x11i27 <= 1
 0 <= x11i28 <= 1
 0 <= x11i29 <= 1
 0 <= x11i30 <= 1
 x11i31 = 0
 x11i32 = 0
 0 <= x11i33 <= 1
 0 <= x11i34 <= 1
 0 <= x12i19 <= 1
 0 <= x12i20 <= 1
 0 <= x12i21 <= 1
 0 <= x12i22 <= 1
 0 <= x12i23 <= 1
 0 <= x12i24 <= 1
 0 <= x12i25 <= 1
 0 <= x12i26 <= 1
 0 <= x12i27 <= 1
 0 <= x12i28 <= 1
 0 <= x12i29 <= 1
 0 <= x12i30 <= 1
 0 <= x12i31 <= 1
 0 <= x12i32 <= 1
 0 <= x12i33 <= 1
 0 <= x12i34 <= 1
 0 <= x13i19 <= 1
 0 <= x13i20 <= 1
 0 <= x13i21 <= 1
 0 <= x13i22 <= 1
 0 <= x13i23 <= 1
 0 <= x13i24 <= 1
 0 <= x13i25 <= 1
 0 <= x13i26 <= 1
 0 <= x13i27 <= 1
 0 <= x13i28 <= 1
 0 <= x13i29 <= 1
 0 <= x13i30 <= 1
 0 <= x13i31 <= 1
 0 <= x13i32 <= 1
 0 <= x13i33 <= 1
 0 <= x13i34 <= 1
 0 <= x14i19 <= 1
 0 <= x14i20 <= 1
 0 <= x14i21 <= 1
 0 <= x14i22 <= 1
 0 <= x14i23 <= 1
 0 <= x14i24 <= 1
 0 <= x14i25 <= 1
 0 <= x14i26 <= 1
 0 <= x14i27 <= 1
 0 <= x14i28 <= 1
 0 <= x14i29 <= 1
 0 <= x14i30 <= 1
 0 <= x14i31 <= 1
 0 <= x14i32 <= 1
 0 <= x14i33 <= 1
 0 <= x14i34 <= 1
 0 <= x15i19 <= 1
 0 <= x15i20 <= 1
 0 <= x15i21 <= 1
 0 <= x15i22 <= 1
 0 <= x15i23 <= 1
 0 <= x15i24 <= 1
 0 <= x15i25 <= 1
 0 <= x15i26 <= 1
 0 <= x15i27 <= 1
 0 <= x15i28 <= 1
 0 <= x15i29 <= 1
 x15i30 = 0
 0 <= x15i31 <= 1
 0 <= x15i32 <= 1
 x15i33 = 0
 0 <= x15i34 <= 1
 0 <= x16i19 <= 1
 0 <= x16i20 <= 1
 0 <= x16i21 <= 1
 0 <= x16i22 <= 1
 0 <= x16i23 <= 1
 0 <= x16i24 <= 1
 0 <= x16i25 <= 1
 0 <= x16i26 <= 1
 0 <= x16i27 <= 1
 0 <= x16i28 <= 1
 0 <= x16i29 <= 1
 0 <= x16i30 <= 1
 0 <= x16i31 <= 1
 0 <= x16i32 <= 1
 x16i33 = 0
 0 <= x16i34 <= 1
 0 <= x17i19 <= 1
 0 <= x17i20 <= 1
 0 <= x17i21 <= 1
 0 <= x17i22 <= 1
 0 <= x17i23 <= 1
 0 <= x17i24 <= 1
 0 <= x17i25 <= 1
 0 <= x17i26 <= 1
 0 <= x17i27 <= 1
 0 <= x17i28 <= 1
 0 <= x17i29 <= 1
 0 <= x17i30 <= 1
 x17i31 = 0
 x17i32 = 0
 0 <= x17i33 <= 1
 0 <= x17i34 <= 1
 0 <= x18i19 <= 1
 0 <= x18i20 <= 1
 0 <= x18i21 <= 1
 0 <= x18i22 <= 1
 0 <= x18i23 <= 1
 0 <= x18i24 <= 1
 0 <= x18i25 <= 1
 0 <= x18i26 <= 1
 0 <= x18i27 <= 1
 0 <= x18i28 <= 1
 0 <= x18i29 <= 1
 0 <= x18i30 <= 1
 0 <= x18i31 <= 1
 0 <= x18i32 <= 1
 0 <= x18i33 <= 1
 0 <= x18i34 <= 1
 0 <= x19i20 <= 1
 0 <= x19i21 <= 1
 0 <= x19i22 <= 1
 0 <= x19i23 <= 1
 0 <= x19i24 <= 1
 0 <= x19i25 <= 1
 0 <= x19i26 <= 1
 0 <= x19i27 <= 1
 0 <= x19i28 <= 1
 0 <= x19i29 <= 1
 0 <= x19i30 <= 1
 0 <= x19i31 <= 1
 0 <= x19i32 <= 1
 0 <= x19i33 <= 1
 0 <= x19i34 <= 1
 0 <= x20i21 <= 1
 0 <= x20i22 <= 1
 0 <= x20i23 <= 1
 0 <= x20i24 <= 1
 0 <= x20i25 <= 1
 0 <= x20i26 <= 1
 0 <= x20i27 <= 1
 0 <= x20i28 <= 1
 0 <= x20i29 <= 1
 0 <= x20i30 <= 1
 0 <= x20i31 <= 1
 0 <= x20i32 <= 1
 0 <= x20i33 <= 1
 0 <= x20i34 <= 1
 0 <= x21i22 <= 1
 0 <= x21i23 <= 1
 0 <= x21i24 <= 1
 0 <= x21i25 <= 1
 0 <= x21i26 <= 1
 0 <= x21i27 <= 1
 0 <= x21i28 <= 1
 0 <= x21i29 <= 1
 0 <= x21i30 <= 1
 0 <= x21i31 <= 1
 0 <= x21i32 <= 1
 0 <= x21i33 <= 1
 0 <= x21i34 <= 1
 0 <= x22i23 <= 1
 0 <= x22i24 <= 1
 0 <= x22i25 <= 1
 0 <= x22i26 <= 1
 0 <= x22i27 <= 1
 0 <= x22i28 <= 1
 0 <= x22i29 <= 1
 0 <= x22i30 <= 1
 0 <= x22i31 <= 1
 0 <= x22i32 <= 1
 0 <= x22i33 <= 1
 0 <= x22i34 <= 1
 0 <= x23i24 <= 1
 0 <= x23i25 <= 1
 0 <= x23i26 <= 1
 0 <= x23i27 <= 1
 0 <= x23i28 <= 1
 0 <= x23i29 <= 1
 0 <= x23i30 <= 1
 0 <= x23i31 <= 1
 0 <= x23i32 <= 1
 0 <= x23i33 <= 1
 0 <= x23i34 <= 1
 0 <= x24i25 <= 1
 0 <= x24i26 <= 1
 0 <= x24i27 <= 1
 0 <= x24i28 <= 1
 0 <= x24i29 <= 1
 0 <= x24i30 <= 1
 0 <= x24i31 <= 1
 0 <= x24i32 <= 1
 0 <= x24i33 <= 1
 0 <= x24i34 <= 1
 0 <= x25i26 <= 1
 0 <= x25i27 <= 1
 0 <= x25i28 <= 1
 0 <= x25i29 <= 1
 0 <= x25i30 <= 1
 0 <= x25i31 <= 1
 0 <= x25i32 <= 1
 0 <= x25i33 <= 1
 0 <= x25i34 <= 1
 0 <= x26i27 <= 1
 0 <= x26i28 <= 1
 0 <= x26i29 <= 1
 0 <= x26i30 <= 1
 0 <= x26i31 <= 1
 0 <= x26i32 <= 1
 0 <= x26i33 <= 1
 0 <= x26i34 <= 1
 0 <= x27i28 <= 1
 0 <= x27i29 <= 1
 0 <= x27i30 <= 1
 0 <= x27i31 <= 1
 0 <= x27i32 <= 1
 0 <= x27i33 <= 1
 0 <= x27i34 <= 1
 0 <= x28i29 <= 1
 0 <= x28i30 <= 1
 0 <= x28i31 <= 1
 0 <= x28i32 <= 1
 0 <= x28i33 <= 1
 0 <= x28i34 <= 1
 0 <= x29i30 <= 1
 0 <= x29i31 <= 1
 0 <= x29i32 <= 1
 0 <= x29i33 <= 1
 0 <= x29i34 <= 1
 x30i31 = 0
 x30i32 = 0
 0 <= x30i33 <= 1
 0 <= x30i34 <= 1
 0 <= x31i32 <= 1
 x31i33 = 0
 0 <= x31i34 <= 1
 x32i33 = 0
 0 <= x32i34 <= 1
 0 <= x33i34 <= 1

Generals
 x1i19
 x1i20
 x1i21
 x1i22
 x1i23
 x1i24
 x1i25
 x1i26
 x1i27
 x1i28
 x1i29
 x1i30
 x1i31
 x1i32
 x1i33
 x1i34
 x2i19
 x2i20
 x2i21
 x2i22
 x2i23
 x2i24
 x2i25
 x2i26
 x2i27
 x2i28
 x2i29
 x2i30
 x2i31
 x2i32
 x2i33
 x2i34
 x3i19
 x3i20
 x3i21
 x3i22
 x3i23
 x3i24
 x3i25
 x3i26
 x3i27
 x3i28
 x3i29
 x3i30
 x3i31
 x3i32
 x3i33
 x3i34
 x4i19
 x4i20
 x4i21
 x4i22
 x4i23
 x4i24
 x4i25
 x4i26
 x4i27
 x4i28
 x4i29
 x4i30
 x4i31
 x4i32
 x4i33
 x4i34
 x5i19
 x5i20
 x5i21
 x5i22
 x5i23
 x5i24
 x5i25
 x5i26
 x5i27
 x5i28
 x5i29
 x5i30
 x5i31
 x5i32
 x5i33
 x5i34
 x6i19
 x6i20
 x6i21
 x6i22
 x6i23
 x6i24
 x6i25
 x6i26
 x6i27
 x6i28
 x6i29
 x6i30
 x6i31
 x6i32
 x6i33
 x6i34
 x7i19
 x7i20
 x7i21
 x7i22
 x7i23
 x7i24
 x7i25
 x7i26
 x7i27
 x7i28
 x7i29
 x7i30
 x7i31
 x7i32
 x7i33
 x7i34
 x8i19
 x8i20
 x8i21
 x8i22
 x8i23
 x8i24
 x8i25
 x8i26
 x8i27
 x8i28
 x8i29
 x8i30
 x8i31
 x8i32
 x8i33
 x8i34
 x9i19
 x9i20
 x9i21
 x9i22
 x9i23
 x9i24
 x9i25
 x9i26
 x9i27
 x9i28
 x9i29
 x9i30
 x9i31
 x9i32
 x9i33
 x9i34
 x10i19
 x10i20
 x10i21
 x10i22
 x10i23
 x10i24
 x10i25
 x10i26
 x10i27
 x10i28
 x10i29
 x10i30
 x10i31
 x10i32
 x10i33
 x10i34
 x11i19
 x11i20
 x11i21
 x11i22
 x11i23
 x11i24
 x11i25
 x11i26
 x11i27
 x11i28
 x11i29
 x11i30
 x11i31
 x11i32
 x11i33
 x11i34
 x12i19
 x12i20
 x12i21
 x12i22
 x12i23
 x12i24
 x12i25
 x12i26
 x12i27
 x12i28
 x12i29
 x12i30
 x12i31
 x12i32
 x12i33
 x12i34
 x13i19
 x13i20
 x13i21
 x13i22
 x13i23
 x13i24
 x13i25
 x13i26
 x13i27
 x13i28
 x13i29
 x13i30
 x13i31
 x13i32
 x13i33
 x13i34
 x14i19
 x14i20
 x14i21
 x14i22
 x14i23
 x14i24
 x14i25
 x14i26
 x14i27
 x14i28
 x14i29
 x14i30
 x14i31
 x14i32
 x14i33
 x14i34
 x15i19
 x15i20
 x15i21
 x15i22
 x15i23
 x15i24
 x15i25
 x15i26
 x15i27
 x15i28
 x15i29
 x15i30
 x15i31
 x15i32
 x15i33
 x15i34
 x16i19
 x16i20
 x16i21
 x16i22
 x16i23
 x16i24
 x16i25
 x16i26
 x16i27
 x16i28
 x16i29
 x16i30
 x16i31
 x16i32
 x16i33
 x16i34
 x17i19
 x17i20
 x17i21
 x17i22
 x17i23
 x17i24
 x17i25
 x17i26
 x17i27
 x17i28
 x17i29
 x17i30
 x17i31
 x17i32
 x17i33
 x17i34
 x18i19
 x18i20
 x18i21
 x18i22
 x18i23
 x18i24
 x18i25
 x18i26
 x18i27
 x18i28
 x18i29
 x18i30
 x18i31
 x18i32
 x18i33
 x18i34
 x19i20
 x19i21
 x19i22
 x19i23
 x19i24
 x19i25
 x19i26
 x19i27
 x19i28
 x19i29
 x19i30
 x19i31
 x19i32
 x19i33
 x19i34
 x20i21
 x20i22
 x20i23
 x20i24
 x20i25
 x20i26
 x20i27
 x20i28
 x20i29
 x20i30
 x20i31
 x20i32
 x20i33
 x20i34
 x21i22
 x21i23
 x21i24
 x21i25
 x21i26
 x21i27
 x21i28
 x21i29
 x21i30
 x21i31
 x21i32
 x21i33
 x21i34
 x22i23
 x22i24
 x22i25
 x22i26
 x22i27
 x22i28
 x22i29
 x22i30
 x22i31
 x22i32
 x22i33
 x22i34
 x23i24
 x23i25
 x23i26
 x23i27
 x23i28
 x23i29
 x23i30
 x23i31
 x23i32
 x23i33
 x23i34
 x24i25
 x24i26
 x24i27
 x24i28
 x24i29
 x24i30
 x24i31
 x24i32
 x24i33
 x24i34
 x25i26
 x25i27
 x25i28
 x25i29
 x25i30
 x25i31
 x25i32
 x25i33
 x25i34
 x26i27
 x26i28
 x26i29
 x26i30
 x26i31
 x26i32
 x26i33
 x26i34
 x27i28
 x27i29
 x27i30
 x27i31
 x27i32
 x27i33
 x27i34
 x28i29
 x28i30
 x28i31
 x28i32
 x28i33
 x28i34
 x29i30
 x29i31
 x29i32
 x29i33
 x29i34
 x30i31
 x30i32
 x30i33
 x30i34
 x31i32
 x31i33
 x31i34
 x32i33
 x32i34
 x33i34

End
